[[76, 77, 75, 67, 68, 66, 74, 65, 64, 56, 55, 46, 47, 57, 58, 59, 49, 50, 48, 39, 38, 40, 41, 32, 31, 30, 29, 37, 28, 19, 20, 21, 22, 13, 11, 12, 10, 2, 3, 4, 14, 5, 6, 7, 8, 9, 18, 17, 16, 15, 23, 24, 25], [26, 27, 35, 36, 44, 34, 33, 42, 43, 45, 54, 53, 52, 51, 60, 61, 62, 63, 72, 81, 71, 80, 70, 69, 78, 79, 88, 89, 90, 99, 98, 97, 96, 87, 95, 86, 94, 93, 92, 91, 83, 82, 73, 84, 85]]